Grasp exp. instance_n_20_m_5_id_5.lp tipoLifted 0 szPool 5 nIteration 50 alpha 0.2 
Academic license - for non-commercial use only
Read LP format model from file ../input/instancesGenerated/instance_n_20_m_5_id_5.lp
Reading time = 0.00 seconds
: 5 rows, 20 columns, 100 nonzeros
Optimize a model with 5 rows, 20 columns and 100 nonzeros
Variable types: 0 continuous, 20 integer (20 binary)
Coefficient statistics:
  Matrix range     [1e+00, 1e+01]
  Objective range  [1e+00, 1e+01]
  Bounds range     [1e+00, 1e+00]
  RHS range        [5e+01, 7e+01]
Found heuristic solution: objective 63.0000000

Explored 0 nodes (0 simplex iterations) in 0.00 seconds
Thread count was 1 (of 8 available processors)

Solution count 1: 63 
No other solutions better than 0

Solution limit reached
Best objective 6.300000000000e+01, best bound -, gap -
C_1:	 4.00 x_1  = 1.000000 + 6.00 x_2  = 0.000000 + 4.00 x_3  = 0.000000 + 1.00 x_4  = 1.000000 + 2.00 x_5  = 1.000000 + 2.00 x_6  = 0.490385 + 5.00 x_7  = 0.567308 + 4.00 x_8  = 0.000000 + 8.00 x_9  = 1.000000 + 1.00 x_10  = 1.000000 + 8.00 x_11  = 0.000000 + 7.00 x_12  = 0.740385 + 4.00 x_13  = 1.000000 + 3.00 x_14  = 0.000000 + 8.00 x_15  = 1.000000 + 9.00 x_16  = 1.000000 + 6.00 x_17  = 0.000000 + 5.00 x_18  = 0.000000 + 2.00 x_19  = 1.000000 + 8.00 x_20  = 0.000000 <= 48.00
C_2:	 3.00 x_1  = 1.000000 + 8.00 x_2  = 0.000000 + 6.00 x_3  = 0.000000 + 4.00 x_4  = 1.000000 + 2.00 x_5  = 1.000000 + 4.00 x_6  = 0.490385 + 3.00 x_7  = 0.567308 + 5.00 x_8  = 0.000000 + 9.00 x_9  = 1.000000 + 1.00 x_10  = 1.000000 + 1.00 x_11  = 0.000000 + 2.00 x_12  = 0.740385 + 7.00 x_13  = 1.000000 + 7.00 x_14  = 0.000000 + 2.00 x_15  = 1.000000 + 10.00 x_16  = 1.000000 + 8.00 x_17  = 0.000000 + 8.00 x_18  = 0.000000 + 3.00 x_19  = 1.000000 + 7.00 x_20  = 0.000000 <= 50.00
C_3:	 1.00 x_1  = 1.000000 + 10.00 x_2  = 0.000000 + 6.00 x_3  = 0.000000 + 4.00 x_4  = 1.000000 + 2.00 x_5  = 1.000000 + 3.00 x_6  = 0.490385 + 4.00 x_7  = 0.567308 + 10.00 x_8  = 0.000000 + 9.00 x_9  = 1.000000 + 8.00 x_10  = 1.000000 + 7.00 x_11  = 0.000000 + 4.00 x_12  = 0.740385 + 5.00 x_13  = 1.000000 + 4.00 x_14  = 0.000000 + 7.00 x_15  = 1.000000 + 8.00 x_16  = 1.000000 + 7.00 x_17  = 0.000000 + 2.00 x_18  = 0.000000 + 4.00 x_19  = 1.000000 + 5.00 x_20  = 0.000000 <= 55.00
C_4:	 2.00 x_1  = 1.000000 + 7.00 x_2  = 0.000000 + 8.00 x_3  = 0.000000 + 10.00 x_4  = 1.000000 + 3.00 x_5  = 1.000000 + 1.00 x_6  = 0.490385 + 9.00 x_7  = 0.567308 + 2.00 x_8  = 0.000000 + 8.00 x_9  = 1.000000 + 4.00 x_10  = 1.000000 + 10.00 x_11  = 0.000000 + 10.00 x_12  = 0.740385 + 5.00 x_13  = 1.000000 + 5.00 x_14  = 0.000000 + 4.00 x_15  = 1.000000 + 9.00 x_16  = 1.000000 + 10.00 x_17  = 0.000000 + 9.00 x_18  = 0.000000 + 8.00 x_19  = 1.000000 + 8.00 x_20  = 0.000000 <= 66.00
C_5:	 6.00 x_1  = 1.000000 + 6.00 x_2  = 0.000000 + 1.00 x_3  = 0.000000 + 2.00 x_4  = 1.000000 + 9.00 x_5  = 1.000000 + 10.00 x_6  = 0.490385 + 2.00 x_7  = 0.567308 + 7.00 x_8  = 0.000000 + 1.00 x_9  = 1.000000 + 5.00 x_10  = 1.000000 + 1.00 x_11  = 0.000000 + 4.00 x_12  = 0.740385 + 3.00 x_13  = 1.000000 + 10.00 x_14  = 0.000000 + 4.00 x_15  = 1.000000 + 5.00 x_16  = 1.000000 + 10.00 x_17  = 0.000000 + 4.00 x_18  = 0.000000 + 8.00 x_19  = 1.000000 + 7.00 x_20  = 0.000000 <= 52.00
Solution initial: 88.596154 
Number Constraints Used in Cover:5
GRASP Method!
Number cuts repeat: 0
value: 88.596154
Number Constraints Used in Cover:13
GRASP Method!
Number cuts repeat: 0
value: 88.596154
Number Constraints Used in Cover:21
GRASP Method!
Number cuts repeat: 0
value: 88.596154
Number Constraints Used in Cover:23
GRASP Method!
Number cuts repeat: 0
value: 88.596154
Number Constraints Used in Cover:28
GRASP Method!
Number cuts repeat: 0
value: 88.596154
Number Constraints Used in Cover:31
GRASP Method!
Number cuts repeat: 0
value: 88.596154
Number Constraints Used in Cover:37
GRASP Method!
Number cuts repeat: 0
value: 88.596154
Number Constraints Used in Cover:40
GRASP Method!
Number cuts repeat: 0
value: 88.596154
Number Constraints Used in Cover:47
GRASP Method!
Number cuts repeat: 0
value: 88.596154
Number Constraints Used in Cover:49
GRASP Method!
Number cuts repeat: 0
value: 88.596154
Number Constraints Used in Cover:49
GRASP Method!
Number cuts repeat: 0
value: 88.596154
Number Constraints Used in Cover:55
GRASP Method!
Number cuts repeat: 0
value: 88.596154
Number Constraints Used in Cover:61
GRASP Method!
Number cuts repeat: 0
value: 88.596154
Number Constraints Used in Cover:70
GRASP Method!
Number cuts repeat: 0
value: 88.596154
Number Constraints Used in Cover:75
GRASP Method!
Number cuts repeat: 0
value: 88.596154
Number Constraints Used in Cover:85
GRASP Method!
Number cuts repeat: 0
value: 88.596154
Number Constraints Used in Cover:94
GRASP Method!
Number cuts repeat: 0
value: 88.596154
Number Constraints Used in Cover:107
GRASP Method!
Number cuts repeat: 0
value: 88.596154
Number Constraints Used in Cover:128
GRASP Method!
Number cuts repeat: 0
value: 88.596154
Number Constraints Used in Cover:143
GRASP Method!
Number cuts repeat: 0
value: 88.596154
Number Constraints Used in Cover:168
GRASP Method!
Number cuts repeat: 0
value: 88.596154
Number Constraints Used in Cover:191
GRASP Method!
Number cuts repeat: 0
value: 88.596154
Number Constraints Used in Cover:213
GRASP Method!
Number cuts repeat: 0
value: 88.596154
Number Constraints Used in Cover:232
GRASP Method!
Number cuts repeat: 0
value: 88.596154
Number Constraints Used in Cover:252
GRASP Method!
Number cuts repeat: 0
value: 88.596154
Number Constraints Used in Cover:277
GRASP Method!
Number cuts repeat: 0
value: 88.596154
Number Constraints Used in Cover:296
GRASP Method!
Number cuts repeat: 0
value: 88.596154
Number Constraints Used in Cover:309
GRASP Method!
Number cuts repeat: 0
value: 88.596154
Number Constraints Used in Cover:334
GRASP Method!
Number cuts repeat: 0
value: 88.596154
Number Constraints Used in Cover:361
GRASP Method!
Number cuts repeat: 0
value: 88.596154
Number Constraints Used in Cover:389
GRASP Method!
Number cuts repeat: 0
value: 88.596154
Number Constraints Used in Cover:410
GRASP Method!
Number cuts repeat: 0
value: 88.596154
Number Constraints Used in Cover:437
GRASP Method!
Number cuts repeat: 0
value: 88.596154
Number Constraints Used in Cover:463
GRASP Method!
Number cuts repeat: 0
value: 88.596154
Number Constraints Used in Cover:492
GRASP Method!
Number cuts repeat: 0
value: 88.596154
Number Constraints Used in Cover:518
GRASP Method!
Number cuts repeat: 0
value: 88.596154
Number Constraints Used in Cover:543
GRASP Method!
Number cuts repeat: 0
value: 88.596154
Number Constraints Used in Cover:577
GRASP Method!
Number cuts repeat: 0
value: 88.596154
Number Constraints Used in Cover:609
GRASP Method!
Number cuts repeat: 0
value: 88.596154
Number Constraints Used in Cover:642
GRASP Method!
Number cuts repeat: 0
value: 88.596154
Number Constraints Used in Cover:672
GRASP Method!
Number cuts repeat: 0
value: 88.596154
Number Constraints Used in Cover:705
GRASP Method!
Number cuts repeat: 0
value: 88.596154
Number Constraints Used in Cover:738
GRASP Method!
Number cuts repeat: 0
value: 88.596154
Number Constraints Used in Cover:769
GRASP Method!
Number cuts repeat: 0
value: 88.596154
Number Constraints Used in Cover:792
GRASP Method!
Number cuts repeat: 0
value: 88.596154
Number Constraints Used in Cover:821
GRASP Method!
Number cuts repeat: 0
value: 88.596154
Number Cuts Final: 840
